problems/csplib-prob015/SchursLemma-models/compact/O2/lingeling/model_1_1-6-7-solution000001.solution
language Essence 1.3

letting boxes be partition({1}, {2}, {3}, {4, 6}, {5}, {7})
