problems/csplib-prob015/SchursLemma-models/noch/O2/lingeling/model_1_1-6-7-solution000001.eprime-solution
language ESSENCE' 1.0

letting boxes_PartitionAsSet_ExplicitR2_Occurrence be
        [[false, false, false, false, false, false, true; int(1..7)],
         [false, false, false, false, true, false, false; int(1..7)],
         [false, false, false, true, false, true, false; int(1..7)],
         [false, false, true, false, false, false, false; int(1..7)],
         [false, true, false, false, false, false, false; int(1..7)],
         [true, false, false, false, false, false, false; int(1..7)]; int(1..6)]
